W=6;
H=7;

MAX_TIME=10;
MAX_TRACKS=10;

TARGET=(4,6);

TRAINS=[(2,2,RIGHT),(4,2,RIGHT),(6,2,RIGHT)];

INIT_POS=[
(2,2,STRAIGHT_RL),
(3,5,EMPTY),
(4,2,STRAIGHT_RL),
(4,6,STRAIGHT_RL),
(5,5,EMPTY),
(6,2,STRAIGHT_RL),
];
TUNNEL_PAIRS=[];

GATES=[];
ACTIVATIONS=[];

DSWITCHES=[];

STATIONS=[];
